************************************************************************
file with basedata            : cm257_.bas
initial value random generator: 1778797901
************************************************************************
projects                      :  1
jobs (incl. supersource/sink ):  18
horizon                       :  112
RESOURCES
  - renewable                 :  2   R
  - nonrenewable              :  2   N
  - doubly constrained        :  0   D
************************************************************************
PROJECT INFORMATION:
pronr.  #jobs rel.date duedate tardcost  MPM-Time
    1     16      0       22        1       22
************************************************************************
PRECEDENCE RELATIONS:
jobnr.    #modes  #successors   successors
   1        1          3           2   3   4
   2        2          2           8  12
   3        2          3           6  10  13
   4        2          3           5   6  11
   5        2          3           7   8  13
   6        2          2           8  14
   7        2          3           9  10  16
   8        2          2          15  17
   9        2          1          12
  10        2          1          12
  11        2          3          13  15  17
  12        2          1          15
  13        2          1          16
  14        2          2          16  17
  15        2          1          18
  16        2          1          18
  17        2          1          18
  18        1          0        
************************************************************************
REQUESTS/DURATIONS:
jobnr. mode duration  R 1  R 2  N 1  N 2
------------------------------------------------------------------------
  1      1     0       0    0    0    0
  2      1     5       0    6    5    9
         2     9       0    3    4    9
  3      1     4       5    0    7    7
         2     5       0    8    3    6
  4      1     3       0    8    6    8
         2     7       0    7    5    2
  5      1     5       0    8    6    9
         2     7       0    5    3    6
  6      1     1       8    0    6    6
         2     8       8    0    6    5
  7      1     1       0    9    8    6
         2     9       7    0    4    2
  8      1     6       0    7    9    8
         2     7       7    0    9    3
  9      1     6       0    4    9    9
         2     8       0    1    6    3
 10      1     2       0    7    6   10
         2     3       0    4    3   10
 11      1     3       4    0    6    9
         2     5       0    8    5    9
 12      1     3       4    0    7   10
         2     8       3    0    6    8
 13      1     2       0    6    6    7
         2     8       0    3    6    5
 14      1     3       0    4    6   10
         2    10       0    3    5    9
 15      1     4       7    0    9    3
         2     8       0    6    8    1
 16      1     1       0    6    4    7
         2     4      10    0    4    6
 17      1     6       4    0    4    7
         2     6       2    0    4    8
 18      1     0       0    0    0    0
************************************************************************
RESOURCEAVAILABILITIES:
  R 1  R 2  N 1  N 2
   10   13  104  126
************************************************************************
